# Objective value = 1.9279689683499591e+03
x[0] 0
x[1] 1
x[2] 0
x[3] 1
x[4] 1
x[5] 0
x[6] 1
x[7] 0
x[8] 1
x[9] 0
x[10] 0
x[11] 1
x[12] 1
x[13] 1
x[14] 1
x[15] 1
x[16] 1
x[17] 1
x[18] 1
x[19] 1
x[20] 1
x[21] 0
x[22] 0
x[23] 1
x[24] 1
x[25] 0
x[26] 1
x[27] 1
x[28] 1
x[29] 1
x[30] 1
x[31] 1
x[32] 0
x[33] 0
x[34] 1
x[35] 1
x[36] 0
x[37] 1
x[38] 1
x[39] 0
x[40] 0
x[41] 1
x[42] 0
x[43] 1
x[44] 1
x[45] 1
x[46] 1
x[47] 0
x[48] 0
x[49] 1
x[50] 0
x[51] 0
x[52] 1
x[53] 0
x[54] 1
x[55] 1
x[56] 1
x[57] 0
x[58] 1
x[59] 0
x[60] 0
x[61] 1
x[62] 0
x[63] 0
x[64] 0
x[65] 0
x[66] 0
x[67] 1
x[68] 1
x[69] 1
x[70] 0
x[71] 1
x[72] 0
x[73] 1
x[74] 1
x[75] 1
x[76] 0
x[77] 1
x[78] 0
x[79] 1
x[80] 0
x[81] 1
x[82] 1
x[83] 1
x[84] 0
x[85] 1
x[86] 0
x[87] 0
x[88] 0
x[89] 1
x[90] 0
x[91] 0
x[92] 0
x[93] 1
x[94] 0
x[95] 1
x[96] 1
x[97] 1
x[98] 1
x[99] 1
x[100] 0
x[101] 1
x[102] 0
x[103] 1
x[104] 1
x[105] 1
x[106] 0
x[107] 1
x[108] 1
x[109] 1
x[110] 0
x[111] 1
x[112] 1
x[113] 1
x[114] 0
x[115] 0
x[116] 0
x[117] 0
x[118] 0
x[119] 0
x[120] 0
x[121] 0
x[122] 0
x[123] 0
x[124] 0
x[125] 1
x[126] 0
x[127] 1
x[128] 0
x[129] 1
x[130] 1
x[131] 1
x[132] 1
x[133] 0
x[134] 0
x[135] 0
x[136] 0
x[137] 1
x[138] 1
x[139] 0
x[140] 1
x[141] 0
x[142] 1
x[143] 1
x[144] 1
x[145] 0
x[146] 1
x[147] 1
x[148] 1
x[149] 1
x[150] 0
x[151] 1
x[152] 1
x[153] 0
x[154] 1
x[155] 0
x[156] 1
x[157] 0
x[158] 0
x[159] 1
x[160] 0
x[161] 0
x[162] 0
x[163] 0
x[164] 1
x[165] 1
x[166] 1
x[167] 0
x[168] 1
x[169] 0
x[170] 0
x[171] 1
x[172] 1
x[173] 0
x[174] 0
x[175] 1
x[176] 1
x[177] 1
x[178] 0
x[179] 1
x[180] 0
x[181] 0
x[182] 1
x[183] 1
x[184] 0
x[185] 1
x[186] 0
x[187] 0
x[188] 1
x[189] 1
x[190] 0
x[191] 1
x[192] 1
x[193] 0
x[194] 1
x[195] 1
x[196] 0
x[197] 0
x[198] 0
x[199] 0
x[200] 1
x[201] 0
x[202] 0
x[203] 1
x[204] 1
x[205] 0
x[206] 0
x[207] 1
x[208] 1
x[209] 1
x[210] 1
x[211] 1
x[212] 0
x[213] 0
x[214] 0
x[215] 0
x[216] 1
x[217] 1
x[218] 1
x[219] 0
x[220] 1
x[221] 1
x[222] 1
x[223] 0
x[224] 1
x[225] 0
x[226] 0
x[227] 1
x[228] 0
x[229] 0
x[230] 1
x[231] 0
x[232] 0
x[233] 1
x[234] 0
x[235] 1
x[236] 1
x[237] 0
x[238] 1
x[239] 0
x[240] 1
x[241] 1
x[242] 0
x[243] 0
x[244] 1
x[245] 1
x[246] 1
x[247] 0
x[248] 0
x[249] 0
x[250] 1
x[251] 0
x[252] 1
x[253] 0
x[254] 1
x[255] 0
x[256] 0
x[257] 0
x[258] 1
x[259] 0
x[260] 0
x[261] 0
x[262] 0
x[263] 0
x[264] 0
x[265] 1
x[266] 1
x[267] 1
x[268] 0
x[269] 1
x[270] 1
x[271] 1
x[272] 1
x[273] 1
x[274] 0
x[275] 0
x[276] 1
x[277] 0
x[278] 0
x[279] 0
x[280] 1
x[281] 1
x[282] 1
x[283] 1
x[284] 1
x[285] 0
x[286] 1
x[287] 0
x[288] 1
x[289] 1
x[290] 0
x[291] 1
x[292] 1
x[293] 1
x[294] 1
x[295] 1
x[296] 1
x[297] 0
x[298] 1
x[299] 1
x[300] 1
x[301] 1
x[302] 1
x[303] 1
x[304] 0
x[305] 0
x[306] 0
x[307] 0
x[308] 0
x[309] 1
x[310] 0
x[311] 1
x[312] 0
x[313] 1
x[314] 0
x[315] 1
x[316] 0
x[317] 1
x[318] 1
x[319] 0
x[320] 0
x[321] 1
x[322] 0
x[323] 0
x[324] 0
x[325] 0
x[326] 1
x[327] 1
x[328] 1
x[329] 0
x[330] 0
x[331] 1
x[332] 1
x[333] 1
x[334] 0
x[335] 0
x[336] 0
x[337] 1
x[338] 0
x[339] 1
x[340] 0
x[341] 0
x[342] 0
x[343] 1
x[344] 1
x[345] 0
x[346] 1
x[347] 1
x[348] 1
x[349] 1
x[350] 0
x[351] 0
x[352] 1
x[353] 1
x[354] 1
x[355] 1
x[356] 1
x[357] 0
x[358] 0
x[359] 0
x[360] 1
x[361] 0
x[362] 1
x[363] 0
x[364] 1
x[365] 1
x[366] 1
x[367] 1
x[368] 0
x[369] 1
x[370] 0
x[371] 1
x[372] 0
x[373] 0
x[374] 1
x[375] 0
x[376] 1
x[377] 0
x[378] 1
x[379] 1
x[380] 0
x[381] 0
x[382] 0
x[383] 1
x[384] 0
x[385] 0
x[386] 0
x[387] 1
x[388] 0
x[389] 0
x[390] 0
x[391] 0
x[392] 1
x[393] 0
x[394] 1
x[395] 0
x[396] 1
x[397] 0
x[398] 1
x[399] 1
x[400] 1
x[401] 1
x[402] 1
x[403] 1
x[404] 1
x[405] 0
x[406] 1
x[407] 0
x[408] 0
x[409] 0
x[410] 1
x[411] 1
x[412] 1
x[413] 1
x[414] 1
x[415] 0
x[416] 0
x[417] 0
x[418] 1
x[419] 0
x[420] 1
x[421] 0
x[422] 0
x[423] 0
x[424] 1
x[425] 0
x[426] 0
x[427] 0
x[428] 1
x[429] 1
x[430] 1
x[431] 1
x[432] 1
x[433] 0
x[434] 0
x[435] 1
x[436] 1
x[437] 0
x[438] 1
x[439] 1
x[440] 1
x[441] 0
x[442] 0
x[443] 1
x[444] 0
x[445] 0
x[446] 0
x[447] 0
x[448] 1
x[449] 0
x[450] 1
x[451] 0
x[452] 0
x[453] 1
x[454] 1
x[455] 0
x[456] 0
x[457] 1
x[458] 1
x[459] 1
x[460] 1
x[461] 1
x[462] 0
x[463] 1
x[464] 0
x[465] 0
x[466] 1
x[467] 1
x[468] 1
x[469] 0
x[470] 1
x[471] 1
x[472] 0
x[473] 0
x[474] 0
x[475] 0
x[476] 1
x[477] 1
x[478] 1
x[479] 0
x[480] 1
x[481] 0
x[482] 1
x[483] 1
x[484] 1
x[485] 0
x[486] 1
x[487] 0
x[488] 0
x[489] 1
x[490] 1
x[491] 0
x[492] 1
x[493] 1
x[494] 1
x[495] 0
x[496] 0
x[497] 1
x[498] 1
x[499] 0
x[500] 1
x[501] 1
x[502] 1
x[503] 0
x[504] 1
x[505] 1
x[506] 0
x[507] 1
x[508] 0
x[509] 1
x[510] 1
x[511] 1
x[512] 0
x[513] 1
x[514] 1
x[515] 1
x[516] 0
x[517] 0
x[518] 1
x[519] 1
x[520] 0
x[521] 1
x[522] 0
x[523] 1
x[524] 1
x[525] 1
x[526] 1
x[527] 1
x[528] 0
x[529] 0
x[530] 1
x[531] 0
x[532] 1
x[533] 1
x[534] 0
x[535] 0
x[536] 1
x[537] 1
x[538] 0
x[539] 1
x[540] 1
x[541] 0
x[542] 0
x[543] 1
x[544] 0
x[545] 0
x[546] 0
x[547] 0
x[548] 1
x[549] 0
x[550] 0
x[551] 1
x[552] 1
x[553] 1
x[554] 0
x[555] 0
x[556] 1
x[557] 1
x[558] 0
x[559] 1
x[560] 1
x[561] 1
x[562] 1
x[563] 0
x[564] 0
x[565] 0
x[566] 1
x[567] 0
x[568] 0
x[569] 0
x[570] 0
x[571] 1
x[572] 1
x[573] 0
x[574] 1
x[575] 0
x[576] 0
x[577] 0
x[578] 1
x[579] 1
x[580] 1
x[581] 1
x[582] 1
x[583] 1
x[584] 1
x[585] 0
x[586] 1
x[587] 0
x[588] 1
x[589] 1
x[590] 0
x[591] 1
x[592] 1
x[593] 0
x[594] 1
x[595] 0
x[596] 0
x[597] 1
x[598] 0
x[599] 0
x[600] 1
x[601] 0
x[602] 1
x[603] 1
x[604] 0
x[605] 1
x[606] 0
x[607] 1
x[608] 1
x[609] 0
x[610] 1
x[611] 1
x[612] 0
x[613] 1
x[614] 0
x[615] 1
x[616] 1
x[617] 1
x[618] 1
x[619] 1
x[620] 1
x[621] 0
x[622] 1
x[623] 1
x[624] 0
x[625] 1
x[626] 1
x[627] 0
x[628] 0
x[629] 1
x[630] 1
x[631] 1
x[632] 0
x[633] 0
x[634] 1
x[635] 0
x[636] 1
x[637] 1
x[638] 0
x[639] 1
x[640] 1
x[641] 1
x[642] 0
x[643] 0
x[644] 1
x[645] 1
x[646] 1
x[647] 0
x[648] 0
x[649] 1
x[650] 0
x[651] 1
x[652] 0
x[653] 0
x[654] 0
x[655] 1
x[656] 1
x[657] 1
x[658] 1
x[659] 1
x[660] 0
x[661] 0
x[662] 1
x[663] 1
x[664] 1
x[665] 1
x[666] 1
x[667] 0
x[668] 0
x[669] 1
x[670] 1
x[671] 1
x[672] 1
x[673] 1
x[674] 1
x[675] 1
x[676] 1
x[677] 0
x[678] 1
x[679] 1
x[680] 1
x[681] 1
x[682] 1
x[683] 0
x[684] 0
x[685] 1
x[686] 0
x[687] 0
x[688] 1
x[689] 0
x[690] 0
x[691] 1
x[692] 0
x[693] 1
x[694] 1
x[695] 1
x[696] 1
x[697] 0
x[698] 0
x[699] 0
x[700] 1
x[701] 0
x[702] 0
x[703] 1
x[704] 0
x[705] 0
x[706] 1
x[707] 0
x[708] 1
x[709] 1
x[710] 1
x[711] 1
x[712] 1
x[713] 0
x[714] 1
x[715] 0
x[716] 1
x[717] 1
x[718] 0
x[719] 1
x[720] 0
x[721] 0
x[722] 1
x[723] 0
x[724] 0
x[725] 1
x[726] 0
x[727] 1
x[728] 0
x[729] 0
x[730] 0
x[731] 1
x[732] 1
x[733] 0
x[734] 1
x[735] 1
x[736] 0
x[737] 1
x[738] 1
x[739] 0
x[740] 1
x[741] 1
x[742] 0
x[743] 1
x[744] 1
x[745] 1
x[746] 1
x[747] 0
x[748] 1
x[749] 0
x[750] 0
x[751] 1
x[752] 1
x[753] 0
x[754] 0
x[755] 0
x[756] 0
x[757] 0
x[758] 1
x[759] 0
x[760] 1
x[761] 1
x[762] 0
x[763] 1
x[764] 1
x[765] 1
x[766] 1
x[767] 1
x[768] 0
x[769] 1
x[770] 1
x[771] 1
x[772] 0
x[773] 1
x[774] 1
x[775] 0
x[776] 1
x[777] 0
x[778] 0
x[779] 1
x[780] 1
x[781] 1
x[782] 0
x[783] 1
x[784] 0
x[785] 1
x[786] 1
x[787] 1
x[788] 1
x[789] 1
x[790] 1
x[791] 1
x[792] 1
x[793] 1
x[794] 0
x[795] 0
x[796] 0
x[797] 0
x[798] 0
x[799] 1
x[800] 0
x[801] 1
x[802] 0
x[803] 1
x[804] 0
x[805] 1
x[806] 1
x[807] 1
x[808] 1
x[809] 0
x[810] 0
x[811] 0
x[812] 1
x[813] 0
x[814] 0
x[815] 1
x[816] 0
x[817] 1
x[818] 0
x[819] 0
x[820] 1
x[821] 1
x[822] 1
x[823] 1
x[824] 1
x[825] 1
x[826] 0
x[827] 1
x[828] 0
x[829] 1
x[830] 0
x[831] 1
x[832] 1
x[833] 0
x[834] 1
x[835] 0
x[836] 1
x[837] 0
x[838] 1
x[839] 0
x[840] 0
x[841] 1
x[842] 1
x[843] 0
x[844] 1
x[845] 1
x[846] 0
x[847] 1
x[848] 0
x[849] 1
x[850] 1
x[851] 1
x[852] 1
x[853] 1
x[854] 1
x[855] 0
x[856] 1
x[857] 1
x[858] 0
x[859] 0
x[860] 0
x[861] 1
x[862] 1
x[863] 1
x[864] 1
x[865] 1
x[866] 1
x[867] 0
x[868] 0
x[869] 1
x[870] 1
x[871] 1
x[872] 1
x[873] 0
x[874] 0
x[875] 1
x[876] 1
x[877] 1
x[878] 0
x[879] 1
x[880] 1
x[881] 0
x[882] 1
x[883] 0
x[884] 0
x[885] 0
x[886] 1
x[887] 0
x[888] 0
x[889] 1
x[890] 1
x[891] 0
x[892] 1
x[893] 1
x[894] 1
x[895] 1
x[896] 1
x[897] 1
x[898] 0
x[899] 1
x[900] 1
x[901] 0
x[902] 1
x[903] 0
x[904] 1
x[905] 1
x[906] 1
x[907] 1
x[908] 0
x[909] 0
x[910] 0
x[911] 0
x[912] 1
x[913] 1
x[914] 1
x[915] 0
x[916] 0
x[917] 0
x[918] 1
x[919] 0
x[920] 0
x[921] 0
x[922] 0
x[923] 0
x[924] 0
x[925] 1
x[926] 0
x[927] 1
x[928] 0
x[929] 1
x[930] 1
x[931] 1
x[932] 0
x[933] 0
x[934] 0
x[935] 1
x[936] 1
x[937] 1
x[938] 1
x[939] 1
x[940] 0
x[941] 0
x[942] 0
x[943] 1
x[944] 1
x[945] 1
x[946] 0
x[947] 1
x[948] 1
x[949] 1
x[950] 1
x[951] 0
x[952] 1
x[953] 0
x[954] 0
x[955] 1
x[956] 0
x[957] 0
x[958] 0
x[959] 0
x[960] 0
x[961] 0
x[962] 1
x[963] 0
x[964] 1
x[965] 1
x[966] 0
x[967] 1
x[968] 0
x[969] 0
x[970] 1
x[971] 0
x[972] 0
x[973] 0
x[974] 1
x[975] 1
x[976] 0
x[977] 0
x[978] 1
x[979] 0
x[980] 1
x[981] 0
x[982] 0
x[983] 1
x[984] 0
x[985] 1
x[986] 1
x[987] 1
x[988] 1
x[989] 1
x[990] 1
x[991] 1
x[992] 1
x[993] 0
x[994] 1
x[995] 0
x[996] 1
x[997] 1
x[998] 1
x[999] 0
